32      4       
19      20      11      12      
0       0       0       0       0       3       2       4       6       
4       11      20      0       0       2       3       5       
10      0       0       11      10      2       7       10      
9       0       0       11      11      2       7       10      
1       0       20      11      0       3       8       9       10      
6       0       0       11      6       1       7       
5       0       10      4       0       2       8       9       
7       0       0       11      12      1       11      
7       16      15      0       0       1       11      
7       0       15      0       11      1       11      
8       0       1       0       2       2       12      14      
5       19      12      0       0       1       13      
6       0       0       8       6       2       15      16      
2       0       0       11      12      2       16      17      
2       19      15      0       0       2       17      23      
8       0       20      11      0       4       19      20      21      23      
9       10      0       0       12      1       18      
3       19      0       0       7       3       19      20      21      
10      13      0       1       0       2       22      24      
5       17      0       11      0       3       24      25      29      
2       0       16      0       9       3       24      25      29      
4       19      0       2       0       3       25      28      29      
1       14      13      0       0       2       24      29      
7       0       11      0       6       3       26      27      28      
4       10      20      0       0       2       26      27      
3       14      0       0       12      2       30      31      
10      13      17      0       0       2       30      31      
10      0       0       3       8       2       30      31      
5       19      0       11      0       2       30      31      
5       0       20      0       11      1       32      
4       1       0       7       0       1       32      
0       0       0       0       0       0       
